* ENCODING=ISO-8859-1
NAME          CPLEX
ROWS
 N  obj1    
 G  c1      
 G  c2      
 G  c3      
 G  c4      
 G  c5      
 G  c6      
 G  c7      
 G  c8      
 G  c9      
 G  c10     
 G  c11     
 G  c12     
 G  c13     
 G  c14     
 G  c15     
 G  c16     
 G  c17     
 G  c18     
 G  c19     
 G  c20     
 G  c21     
 G  c22     
 G  c23     
 G  c24     
 G  c25     
 G  c26     
 G  c27     
 G  c28     
 G  c29     
 G  c30     
COLUMNS
    MARK0000  'MARKER'                 'INTORG'
    x1        obj1                            1
    x2        obj1                            1
    x2        c7                            216
    x2        c22                           463
    x3        obj1                            1
    x3        c1                            899
    x3        c5                            953
    x3        c9                            566
    x4        obj1                            1
    x4        c8                            921
    x4        c11                           145
    x5        obj1                            1
    x5        c17                           830
    x5        c27                           723
    x5        c29                           599
    x6        obj1                            1
    x6        c6                            173
    x6        c7                            561
    x6        c15                           431
    x6        c16                           267
    x6        c26                           386
    x6        c29                           379
    x7        obj1                            1
    x7        c1                            466
    x7        c10                           298
    x7        c16                           890
    x7        c25                           878
    x7        c30                           916
    x8        obj1                            1
    x8        c3                            437
    x8        c11                           302
    x8        c18                           324
    x8        c24                           120
    x8        c29                           230
    x9        obj1                            1
    x9        c8                            494
    x9        c15                           679
    x9        c28                           437
    x10       obj1                            1
    x10       c3                            534
    x10       c18                           313
    x10       c25                           984
    x11       obj1                            1
    x11       c13                           135
    x11       c16                           105
    x12       obj1                            1
    x12       c8                            917
    x12       c15                           548
    x12       c20                           592
    x13       obj1                            1
    x13       c1                            988
    x13       c8                            106
    x13       c18                           566
    x13       c19                           138
    x14       obj1                            1
    x14       c15                           740
    x15       obj1                            1
    x16       obj1                            1
    x16       c9                            796
    x16       c19                           838
    x17       obj1                            1
    x17       c11                           646
    x17       c23                           311
    x17       c24                           380
    x18       obj1                            1
    x18       c12                           543
    x18       c24                           309
    x19       obj1                            1
    x19       c6                            717
    x19       c7                            968
    x19       c9                            605
    x19       c12                           646
    x19       c25                           863
    x19       c29                           866
    x20       obj1                            1
    x20       c6                            172
    x20       c9                            811
    x21       obj1                            1
    x21       c2                            803
    x21       c20                           709
    x21       c27                           287
    x22       obj1                            1
    x22       c1                            247
    x22       c5                            962
    x22       c19                           550
    x22       c23                           523
    x23       obj1                            1
    x23       c2                            619
    x23       c4                            914
    x23       c29                           557
    x24       obj1                            1
    x24       c1                            516
    x24       c15                           700
    x24       c17                           906
    x24       c25                           716
    x25       obj1                            1
    x25       c9                            927
    x25       c13                           500
    x25       c23                           539
    x26       obj1                            1
    x26       c14                           941
    x26       c27                           123
    x27       obj1                            1
    x27       c5                            761
    x27       c9                            549
    x27       c16                           916
    x27       c23                           345
    x28       obj1                            1
    x28       c24                           296
    x28       c25                           554
    x29       obj1                            1
    x29       c1                            189
    x29       c2                            902
    x29       c8                            117
    x29       c30                           832
    x30       obj1                            1
    x30       c15                           919
    x30       c28                           997
    x31       obj1                            1
    x31       c3                            800
    x31       c7                            249
    x31       c12                           405
    x31       c19                           954
    x32       obj1                            1
    x32       c28                           634
    x32       c30                           544
    x33       obj1                            1
    x33       c6                            658
    x33       c14                           633
    x34       obj1                            1
    x34       c2                            488
    x34       c3                            463
    x34       c14                           670
    x34       c30                           302
    x35       obj1                            1
    x35       c1                            141
    x35       c4                            741
    x35       c13                           995
    x35       c20                           250
    x36       obj1                            1
    x36       c1                            766
    x36       c7                            335
    x36       c12                           271
    x36       c18                           945
    x37       obj1                            1
    x37       c10                           129
    x37       c16                           694
    x37       c24                           224
    x37       c30                           606
    x38       obj1                            1
    x38       c3                            884
    x39       obj1                            1
    x39       c4                            559
    x40       obj1                            1
    x40       c26                           852
    x41       obj1                            1
    x41       c3                            624
    x41       c7                            411
    x41       c15                           424
    x41       c28                           465
    x42       obj1                            1
    x43       obj1                            1
    x43       c14                           698
    x43       c23                           334
    x44       obj1                            1
    x44       c6                            240
    x44       c22                           921
    x45       obj1                            1
    x45       c3                            924
    x45       c16                           813
    x46       obj1                            1
    x46       c6                            242
    x46       c9                            387
    x46       c21                           354
    x47       obj1                            1
    x47       c9                            419
    x47       c22                           723
    x48       obj1                            1
    x48       c7                            988
    x48       c9                            224
    x48       c11                           706
    x48       c14                           945
    x48       c18                           868
    x48       c30                           329
    x49       obj1                            1
    x49       c3                            897
    x49       c13                           390
    x49       c16                           161
    x49       c23                           243
    x50       obj1                            1
    x50       c23                           232
    x50       c25                           882
    x50       c29                           828
    x51       obj1                            1
    x51       c23                           989
    x52       obj1                            1
    x52       c1                            222
    x52       c14                           384
    x52       c18                           771
    x52       c21                           336
    x52       c26                           904
    x52       c29                           878
    x53       obj1                            1
    x53       c8                            695
    x53       c10                           526
    x53       c27                           612
    x54       obj1                            1
    x54       c12                           828
    x54       c18                           881
    x55       obj1                            1
    x55       c17                           695
    x56       obj1                            1
    x56       c7                            806
    x56       c14                           401
    x56       c23                           718
    x56       c24                           297
    x57       obj1                            1
    x57       c2                            134
    x57       c6                            663
    x57       c11                           163
    x58       obj1                            1
    x59       obj1                            1
    x59       c6                            531
    x59       c13                           725
    x59       c14                           448
    x59       c25                           840
    x60       obj1                            1
    x60       c2                            137
    x60       c11                           450
    x60       c18                           677
    x60       c21                           572
    x60       c22                           299
    x60       c29                           537
    MARK0001  'MARKER'                 'INTEND'
RHS
    rhs       c1                           2217
    rhs       c2                           1542
    rhs       c3                           2782
    rhs       c4                           1107
    rhs       c5                           1338
    rhs       c6                           1698
    rhs       c7                           2267
    rhs       c8                           1625
    rhs       c9                           2642
    rhs       c10                           477
    rhs       c11                          1206
    rhs       c12                          1347
    rhs       c13                          1373
    rhs       c14                          2560
    rhs       c15                          2221
    rhs       c16                          1923
    rhs       c17                          1216
    rhs       c18                          2673
    rhs       c19                          1240
    rhs       c20                           776
    rhs       c21                           631
    rhs       c22                          1203
    rhs       c23                          2117
    rhs       c24                           813
    rhs       c25                          2859
    rhs       c26                          1071
    rhs       c27                           873
    rhs       c28                          1267
    rhs       c29                          2437
    rhs       c30                          1765
BOUNDS
 LI bnd       x1        0
 LI bnd       x2        0
 LI bnd       x3        0
 LI bnd       x4        0
 LI bnd       x5        0
 LI bnd       x6        0
 LI bnd       x7        0
 LI bnd       x8        0
 LI bnd       x9        0
 LI bnd       x10       0
 LI bnd       x11       0
 LI bnd       x12       0
 LI bnd       x13       0
 LI bnd       x14       0
 LI bnd       x15       0
 LI bnd       x16       0
 LI bnd       x17       0
 LI bnd       x18       0
 LI bnd       x19       0
 LI bnd       x20       0
 LI bnd       x21       0
 LI bnd       x22       0
 LI bnd       x23       0
 LI bnd       x24       0
 LI bnd       x25       0
 LI bnd       x26       0
 LI bnd       x27       0
 LI bnd       x28       0
 LI bnd       x29       0
 LI bnd       x30       0
 LI bnd       x31       0
 LI bnd       x32       0
 LI bnd       x33       0
 LI bnd       x34       0
 LI bnd       x35       0
 LI bnd       x36       0
 LI bnd       x37       0
 LI bnd       x38       0
 LI bnd       x39       0
 LI bnd       x40       0
 LI bnd       x41       0
 LI bnd       x42       0
 LI bnd       x43       0
 LI bnd       x44       0
 LI bnd       x45       0
 LI bnd       x46       0
 LI bnd       x47       0
 LI bnd       x48       0
 LI bnd       x49       0
 LI bnd       x50       0
 LI bnd       x51       0
 LI bnd       x52       0
 LI bnd       x53       0
 LI bnd       x54       0
 LI bnd       x55       0
 LI bnd       x56       0
 LI bnd       x57       0
 LI bnd       x58       0
 LI bnd       x59       0
 LI bnd       x60       0
ENDATA
